param n := 120;
param c := 1000;
param : V : p w :=
   0	 480	 470
   1	 264	 254
   2	 286	 276
   3	 403	 393
   4	 281	 271
   5	 346	 336
   6	 364	 354
   7	 292	 282
   8	 374	 364
   9	 376	 366
  10	 272	 262
  11	 382	 372
  12	 428	 418
  13	 275	 265
  14	 327	 317
  15	 452	 442
  16	 267	 257
  17	 311	 301
  18	 473	 463
  19	 262	 252
  20	 295	 285
  21	 457	 447
  22	 264	 254
  23	 309	 299
  24	 483	 473
  25	 260	 250
  26	 287	 277
  27	 422	 412
  28	 282	 272
  29	 326	 316
  30	 361	 351
  31	 263	 253
  32	 406	 396
  33	 425	 415
  34	 299	 289
  35	 306	 296
  36	 413	 403
  37	 278	 268
  38	 339	 329
  39	 391	 381
  40	 305	 295
  41	 334	 324
  42	 407	 397
  43	 309	 299
  44	 314	 304
  45	 509	 499
  46	 260	 250
  47	 261	 251
  48	 467	 457
  49	 265	 255
  50	 298	 288
  51	 447	 437
  52	 288	 278
  53	 295	 285
  54	 364	 354
  55	 308	 298
  56	 358	 348
  57	 422	 412
  58	 275	 265
  59	 333	 323
  60	 429	 419
  61	 287	 277
  62	 314	 304
  63	 481	 471
  64	 262	 252
  65	 287	 277
  66	 444	 434
  67	 289	 279
  68	 297	 287
  69	 364	 354
  70	 266	 256
  71	 400	 390
  72	 486	 476
  73	 265	 255
  74	 279	 269
  75	 490	 480
  76	 264	 254
  77	 276	 266
  78	 428	 418
  79	 264	 254
  80	 338	 328
  81	 379	 369
  82	 290	 280
  83	 361	 351
  84	 421	 411
  85	 275	 265
  86	 334	 324
  87	 442	 432
  88	 288	 278
  89	 300	 290
  90	 416	 406
  91	 283	 273
  92	 331	 321
  93	 449	 439
  94	 284	 274
  95	 297	 287
  96	 403	 393
  97	 271	 261
  98	 356	 346
  99	 454	 444
 100	 265	 255
 101	 311	 301
 102	 509	 499
 103	 260	 250
 104	 261	 251
 105	 449	 439
 106	 271	 261
 107	 310	 300
 108	 384	 374
 109	 316	 306
 110	 330	 320
 111	 477	 467
 112	 267	 257
 113	 286	 276
 114	 420	 410
 115	 284	 274
 116	 326	 316
 117	 415	 405
 118	 304	 294
 119	 311	 301
;

set E :=
   0	   1
   0	   4
   0	  13
   0	  24
   0	  25
   0	  29
   0	  30
   0	  31
   0	  35
   0	  37
   0	  41
   0	  43
   0	  45
   0	  48
   0	  49
   0	  53
   0	  59
   0	  64
   0	  65
   0	  67
   0	  73
   0	  74
   0	  77
   0	  83
   0	  84
   0	  85
   0	  98
   0	 103
   0	 106
   0	 108
   0	 110
   0	 111
   0	 114
   0	 115
   0	 117
   0	 119
   1	   2
   1	  10
   1	  11
   1	  12
   1	  13
   1	  16
   1	  17
   1	  20
   1	  22
   1	  33
   1	  34
   1	  41
   1	  45
   1	  55
   1	  57
   1	  61
   1	  63
   1	  65
   1	  67
   1	  69
   1	  70
   1	  75
   1	  76
   1	  77
   1	  78
   1	  80
   1	  82
   1	  93
   1	  95
   1	  96
   1	  99
   1	 100
   1	 101
   1	 104
   1	 105
   1	 111
   1	 115
   2	   5
   2	   6
   2	  16
   2	  25
   2	  28
   2	  29
   2	  30
   2	  34
   2	  36
   2	  40
   2	  41
   2	  42
   2	  43
   2	  44
   2	  48
   2	  55
   2	  58
   2	  61
   2	  63
   2	  67
   2	  79
   2	  80
   2	  83
   2	  86
   2	  89
   2	  95
   2	  98
   2	 103
   2	 106
   2	 108
   2	 109
   2	 110
   2	 112
   2	 114
   2	 118
   3	   4
   3	   5
   3	   9
   3	  10
   3	  14
   3	  17
   3	  18
   3	  27
   3	  29
   3	  33
   3	  34
   3	  38
   3	  45
   3	  46
   3	  47
   3	  49
   3	  50
   3	  52
   3	  63
   3	  67
   3	  69
   3	  70
   3	  72
   3	  77
   3	  88
   3	  89
   3	  90
   3	  91
   3	  95
   3	 103
   3	 107
   3	 109
   3	 114
   3	 117
   4	   8
   4	  11
   4	  18
   4	  21
   4	  23
   4	  28
   4	  32
   4	  33
   4	  35
   4	  37
   4	  40
   4	  47
   4	  49
   4	  50
   4	  56
   4	  58
   4	  59
   4	  61
   4	  64
   4	  65
   4	  71
   4	  75
   4	  79
   4	  81
   4	  84
   4	  87
   4	  93
   4	  98
   4	  99
   4	 100
   4	 103
   4	 109
   5	   6
   5	   7
   5	   9
   5	  11
   5	  14
   5	  16
   5	  17
   5	  18
   5	  19
   5	  20
   5	  21
   5	  26
   5	  28
   5	  29
   5	  30
   5	  34
   5	  35
   5	  37
   5	  39
   5	  40
   5	  45
   5	  52
   5	  54
   5	  61
   5	  62
   5	  64
   5	  67
   5	  68
   5	  71
   5	  73
   5	  76
   5	  82
   5	  87
   5	  89
   5	  93
   5	  94
   5	  96
   5	 100
   5	 102
   5	 103
   5	 105
   6	   9
   6	  10
   6	  11
   6	  12
   6	  13
   6	  16
   6	  19
   6	  20
   6	  22
   6	  26
   6	  27
   6	  30
   6	  31
   6	  38
   6	  43
   6	  44
   6	  48
   6	  50
   6	  54
   6	  56
   6	  57
   6	  58
   6	  61
   6	  64
   6	  71
   6	  79
   6	  82
   6	  87
   6	  90
   6	  92
   6	  97
   6	  99
   6	 103
   6	 105
   6	 109
   6	 111
   6	 112
   6	 114
   6	 116
   7	   8
   7	  19
   7	  21
   7	  22
   7	  24
   7	  26
   7	  28
   7	  32
   7	  38
   7	  39
   7	  49
   7	  52
   7	  53
   7	  54
   7	  55
   7	  57
   7	  58
   7	  63
   7	  65
   7	  68
   7	  72
   7	  73
   7	  76
   7	  86
   7	  89
   7	  99
   7	 113
   7	 116
   8	  10
   8	  15
   8	  18
   8	  21
   8	  31
   8	  35
   8	  40
   8	  41
   8	  45
   8	  48
   8	  49
   8	  50
   8	  55
   8	  56
   8	  57
   8	  58
   8	  66
   8	  67
   8	  75
   8	  76
   8	  79
   8	  81
   8	  83
   8	  85
   8	  87
   8	  91
   8	  95
   8	  99
   8	 100
   8	 102
   8	 103
   8	 104
   8	 107
   8	 110
   8	 113
   9	  13
   9	  18
   9	  24
   9	  25
   9	  26
   9	  33
   9	  37
   9	  39
   9	  40
   9	  42
   9	  43
   9	  50
   9	  57
   9	  64
   9	  65
   9	  68
   9	  73
   9	  75
   9	  79
   9	  85
   9	  86
   9	  88
   9	  89
   9	  92
   9	  99
   9	 100
   9	 101
   9	 105
   9	 115
   9	 118
  10	  11
  10	  13
  10	  15
  10	  19
  10	  21
  10	  25
  10	  34
  10	  37
  10	  39
  10	  42
  10	  43
  10	  49
  10	  53
  10	  54
  10	  72
  10	  73
  10	  81
  10	  82
  10	  85
  10	  88
  10	  90
  10	  93
  10	  94
  10	 102
  10	 105
  10	 106
  10	 107
  10	 109
  10	 110
  10	 114
  10	 118
  11	  13
  11	  16
  11	  19
  11	  21
  11	  23
  11	  25
  11	  29
  11	  30
  11	  32
  11	  33
  11	  38
  11	  39
  11	  40
  11	  41
  11	  45
  11	  46
  11	  48
  11	  51
  11	  54
  11	  55
  11	  57
  11	  60
  11	  61
  11	  66
  11	  68
  11	  75
  11	  80
  11	  83
  11	  86
  11	  93
  11	  94
  11	  97
  11	  98
  11	 100
  11	 101
  11	 102
  11	 107
  11	 109
  11	 111
  12	  17
  12	  21
  12	  26
  12	  32
  12	  33
  12	  43
  12	  44
  12	  45
  12	  46
  12	  48
  12	  49
  12	  53
  12	  54
  12	  57
  12	  59
  12	  62
  12	  65
  12	  68
  12	  74
  12	  76
  12	  77
  12	  85
  12	  88
  12	  89
  12	  92
  12	  95
  12	  96
  12	 100
  12	 106
  12	 107
  12	 109
  12	 114
  12	 119
  13	  20
  13	  23
  13	  28
  13	  33
  13	  35
  13	  38
  13	  40
  13	  41
  13	  43
  13	  52
  13	  54
  13	  61
  13	  64
  13	  65
  13	  69
  13	  70
  13	  73
  13	  74
  13	  75
  13	  76
  13	  77
  13	  83
  13	  87
  13	  94
  13	 100
  13	 101
  13	 102
  13	 109
  13	 110
  13	 114
  14	  18
  14	  19
  14	  20
  14	  24
  14	  27
  14	  29
  14	  33
  14	  38
  14	  43
  14	  46
  14	  48
  14	  51
  14	  52
  14	  54
  14	  56
  14	  57
  14	  68
  14	  73
  14	  74
  14	  75
  14	  84
  14	  89
  14	  92
  14	  96
  14	  97
  14	 100
  14	 102
  14	 107
  14	 118
  14	 119
  15	  16
  15	  17
  15	  19
  15	  22
  15	  27
  15	  36
  15	  40
  15	  41
  15	  47
  15	  48
  15	  50
  15	  53
  15	  54
  15	  55
  15	  59
  15	  60
  15	  61
  15	  66
  15	  70
  15	  71
  15	  79
  15	  82
  15	  85
  15	  86
  15	  89
  15	  90
  15	  93
  15	 101
  15	 103
  15	 105
  15	 106
  15	 107
  15	 108
  15	 113
  15	 116
  15	 119
  16	  20
  16	  28
  16	  31
  16	  34
  16	  36
  16	  40
  16	  41
  16	  46
  16	  56
  16	  59
  16	  62
  16	  66
  16	  69
  16	  71
  16	  75
  16	  83
  16	  88
  16	  90
  16	  96
  16	  97
  16	  99
  16	 106
  16	 108
  16	 113
  16	 115
  16	 117
  16	 119
  17	  20
  17	  22
  17	  25
  17	  26
  17	  27
  17	  32
  17	  33
  17	  38
  17	  39
  17	  40
  17	  42
  17	  44
  17	  46
  17	  49
  17	  52
  17	  59
  17	  61
  17	  62
  17	  64
  17	  69
  17	  71
  17	  73
  17	  74
  17	  75
  17	  81
  17	  83
  17	  87
  17	  90
  17	  98
  17	 100
  17	 105
  17	 107
  17	 113
  17	 115
  17	 116
  17	 118
  18	  25
  18	  27
  18	  34
  18	  41
  18	  47
  18	  48
  18	  49
  18	  50
  18	  55
  18	  58
  18	  59
  18	  62
  18	  63
  18	  67
  18	  76
  18	  82
  18	  87
  18	  90
  18	  91
  18	  92
  18	  93
  18	  97
  18	 105
  18	 107
  18	 110
  18	 112
  18	 113
  18	 115
  18	 116
  18	 117
  19	  21
  19	  22
  19	  26
  19	  31
  19	  33
  19	  34
  19	  35
  19	  39
  19	  40
  19	  51
  19	  54
  19	  63
  19	  68
  19	  71
  19	  74
  19	  77
  19	  83
  19	  86
  19	  89
  19	  93
  19	  95
  19	 101
  19	 102
  19	 105
  19	 106
  19	 107
  20	  21
  20	  23
  20	  29
  20	  30
  20	  31
  20	  32
  20	  34
  20	  40
  20	  41
  20	  42
  20	  43
  20	  45
  20	  47
  20	  48
  20	  49
  20	  58
  20	  60
  20	  63
  20	  69
  20	  74
  20	  75
  20	  77
  20	  78
  20	  82
  20	  85
  20	  87
  20	  91
  20	  93
  20	  96
  20	 101
  20	 104
  20	 112
  20	 113
  20	 118
  21	  22
  21	  31
  21	  36
  21	  44
  21	  47
  21	  51
  21	  54
  21	  55
  21	  57
  21	  58
  21	  72
  21	  73
  21	  78
  21	  82
  21	  85
  21	  88
  21	  93
  21	  96
  21	 100
  21	 104
  21	 109
  21	 110
  21	 113
  21	 114
  21	 115
  21	 118
  22	  23
  22	  24
  22	  27
  22	  28
  22	  30
  22	  34
  22	  36
  22	  37
  22	  49
  22	  50
  22	  54
  22	  57
  22	  59
  22	  60
  22	  62
  22	  65
  22	  66
  22	  71
  22	  72
  22	  74
  22	  76
  22	  79
  22	  84
  22	  85
  22	  86
  22	  87
  22	  92
  22	  95
  22	  97
  22	 100
  22	 101
  22	 103
  22	 107
  22	 116
  23	  28
  23	  33
  23	  40
  23	  42
  23	  44
  23	  46
  23	  48
  23	  53
  23	  59
  23	  60
  23	  63
  23	  66
  23	  68
  23	  73
  23	  75
  23	  79
  23	  81
  23	  82
  23	  87
  23	  89
  23	  94
  23	  96
  23	  97
  23	  98
  23	 103
  23	 105
  23	 106
  23	 107
  23	 116
  24	  25
  24	  26
  24	  34
  24	  44
  24	  45
  24	  46
  24	  51
  24	  53
  24	  54
  24	  59
  24	  60
  24	  61
  24	  62
  24	  68
  24	  71
  24	  72
  24	  74
  24	  79
  24	  81
  24	  82
  24	  85
  24	  88
  24	 104
  24	 105
  24	 111
  24	 112
  24	 118
  25	  27
  25	  32
  25	  33
  25	  34
  25	  37
  25	  42
  25	  44
  25	  46
  25	  47
  25	  50
  25	  53
  25	  54
  25	  57
  25	  61
  25	  64
  25	  65
  25	  67
  25	  68
  25	  75
  25	  76
  25	  81
  25	  83
  25	  85
  25	  89
  25	  91
  25	  95
  25	  96
  25	  97
  25	  99
  25	 101
  25	 102
  25	 103
  25	 110
  25	 116
  26	  28
  26	  29
  26	  30
  26	  32
  26	  41
  26	  48
  26	  51
  26	  54
  26	  55
  26	  57
  26	  61
  26	  64
  26	  66
  26	  68
  26	  69
  26	  70
  26	  73
  26	  74
  26	  75
  26	  77
  26	  78
  26	  82
  26	  88
  26	  92
  26	  96
  26	 100
  26	 105
  26	 111
  26	 116
  26	 118
  27	  30
  27	  32
  27	  33
  27	  38
  27	  39
  27	  40
  27	  44
  27	  56
  27	  57
  27	  59
  27	  60
  27	  61
  27	  62
  27	  64
  27	  79
  27	  81
  27	  83
  27	  88
  27	  91
  27	  96
  27	 100
  27	 104
  27	 110
  27	 113
  27	 117
  28	  31
  28	  32
  28	  47
  28	  49
  28	  52
  28	  53
  28	  55
  28	  57
  28	  64
  28	  65
  28	  72
  28	  74
  28	  77
  28	  79
  28	  80
  28	  83
  28	  84
  28	  86
  28	  96
  28	  97
  28	 100
  28	 103
  28	 104
  28	 109
  28	 111
  28	 112
  28	 113
  28	 114
  28	 116
  28	 119
  29	  30
  29	  34
  29	  44
  29	  46
  29	  48
  29	  52
  29	  53
  29	  54
  29	  57
  29	  61
  29	  63
  29	  67
  29	  68
  29	  84
  29	  95
  29	 103
  29	 110
  29	 118
  29	 119
  30	  32
  30	  36
  30	  37
  30	  38
  30	  39
  30	  40
  30	  45
  30	  47
  30	  54
  30	  55
  30	  58
  30	  62
  30	  65
  30	  70
  30	  73
  30	  76
  30	  79
  30	  86
  30	  87
  30	  88
  30	  89
  30	  92
  30	  93
  30	  96
  30	  99
  30	 102
  30	 103
  30	 107
  30	 113
  30	 117
  30	 118
  31	  33
  31	  34
  31	  35
  31	  37
  31	  39
  31	  41
  31	  45
  31	  49
  31	  52
  31	  53
  31	  54
  31	  58
  31	  62
  31	  68
  31	  70
  31	  74
  31	  77
  31	  78
  31	  80
  31	  81
  31	  82
  31	  84
  31	  87
  31	  89
  31	  93
  31	  94
  31	  99
  31	 104
  31	 113
  32	  40
  32	  42
  32	  44
  32	  48
  32	  49
  32	  51
  32	  53
  32	  56
  32	  58
  32	  63
  32	  67
  32	  73
  32	  79
  32	  81
  32	  83
  32	  86
  32	  88
  32	  91
  32	  94
  32	  96
  32	 100
  32	 103
  32	 104
  32	 105
  32	 107
  32	 109
  32	 110
  32	 111
  32	 115
  33	  41
  33	  45
  33	  50
  33	  52
  33	  55
  33	  56
  33	  57
  33	  68
  33	  69
  33	  72
  33	  73
  33	  74
  33	  76
  33	  81
  33	  85
  33	  92
  33	  93
  33	  94
  33	  95
  33	  98
  33	  99
  33	 100
  33	 107
  33	 111
  33	 114
  33	 116
  34	  35
  34	  38
  34	  50
  34	  51
  34	  55
  34	  58
  34	  63
  34	  65
  34	  67
  34	  70
  34	  74
  34	  77
  34	  81
  34	  89
  34	  91
  34	  92
  34	  95
  34	  96
  34	  99
  34	 104
  34	 105
  34	 108
  34	 112
  35	  37
  35	  38
  35	  43
  35	  44
  35	  46
  35	  48
  35	  61
  35	  62
  35	  69
  35	  71
  35	  79
  35	  91
  35	  96
  35	 101
  35	 105
  35	 106
  35	 107
  35	 111
  35	 112
  35	 114
  35	 115
  35	 117
  35	 118
  36	  46
  36	  47
  36	  54
  36	  55
  36	  58
  36	  64
  36	  65
  36	  73
  36	  74
  36	  76
  36	  78
  36	  79
  36	  81
  36	  82
  36	  84
  36	  89
  36	  93
  36	  95
  36	  97
  36	 101
  36	 104
  36	 106
  36	 116
  36	 117
  37	  38
  37	  43
  37	  50
  37	  51
  37	  55
  37	  62
  37	  63
  37	  65
  37	  66
  37	  67
  37	  68
  37	  75
  37	  80
  37	  83
  37	  86
  37	  89
  37	  92
  37	  97
  37	 100
  37	 101
  37	 104
  37	 105
  37	 106
  37	 107
  37	 109
  37	 110
  37	 113
  37	 114
  38	  43
  38	  44
  38	  47
  38	  48
  38	  53
  38	  67
  38	  70
  38	  72
  38	  79
  38	  87
  38	  90
  38	  97
  38	  98
  38	  99
  38	 101
  38	 112
  38	 113
  38	 116
  39	  40
  39	  47
  39	  48
  39	  50
  39	  51
  39	  53
  39	  55
  39	  56
  39	  61
  39	  62
  39	  63
  39	  64
  39	  68
  39	  69
  39	  70
  39	  72
  39	  78
  39	  85
  39	  89
  39	  90
  39	  99
  39	 100
  39	 105
  39	 109
  39	 111
  39	 114
  39	 118
  40	  42
  40	  43
  40	  48
  40	  50
  40	  56
  40	  57
  40	  60
  40	  62
  40	  64
  40	  65
  40	  69
  40	  74
  40	  76
  40	  77
  40	  78
  40	  84
  40	  90
  40	  91
  40	  92
  40	  94
  40	  95
  40	  98
  40	  99
  40	 100
  40	 101
  40	 102
  40	 103
  40	 105
  40	 106
  40	 108
  40	 111
  40	 113
  40	 117
  40	 118
  41	  51
  41	  53
  41	  62
  41	  68
  41	  70
  41	  73
  41	  79
  41	  86
  41	  88
  41	  93
  41	  95
  41	  97
  41	 100
  41	 101
  41	 102
  41	 108
  41	 113
  41	 118
  41	 119
  42	  43
  42	  46
  42	  51
  42	  52
  42	  56
  42	  58
  42	  62
  42	  67
  42	  69
  42	  70
  42	  74
  42	  78
  42	  79
  42	  81
  42	  83
  42	  89
  42	  90
  42	  91
  42	  96
  42	  97
  42	  99
  42	 101
  42	 110
  42	 111
  42	 114
  42	 118
  43	  44
  43	  45
  43	  50
  43	  51
  43	  53
  43	  59
  43	  60
  43	  61
  43	  73
  43	  77
  43	  84
  43	  85
  43	  88
  43	  92
  43	  95
  43	  97
  43	  99
  43	 100
  43	 103
  43	 104
  43	 108
  43	 111
  43	 115
  44	  49
  44	  54
  44	  57
  44	  58
  44	  61
  44	  62
  44	  63
  44	  64
  44	  67
  44	  71
  44	  74
  44	  79
  44	  85
  44	  86
  44	  90
  44	  97
  44	  99
  44	 106
  44	 107
  44	 108
  44	 110
  44	 111
  44	 112
  44	 115
  44	 116
  44	 117
  45	  47
  45	  54
  45	  56
  45	  57
  45	  59
  45	  60
  45	  63
  45	  65
  45	  67
  45	  68
  45	  73
  45	  75
  45	  80
  45	  89
  45	  91
  45	  96
  45	  98
  45	 100
  45	 101
  45	 104
  45	 112
  45	 113
  45	 115
  45	 118
  46	  48
  46	  50
  46	  51
  46	  54
  46	  55
  46	  56
  46	  57
  46	  58
  46	  59
  46	  62
  46	  73
  46	  75
  46	  78
  46	  80
  46	  82
  46	  84
  46	  85
  46	  86
  46	 103
  46	 105
  46	 107
  46	 110
  46	 116
  46	 117
  46	 118
  47	  48
  47	  59
  47	  60
  47	  66
  47	  67
  47	  70
  47	  73
  47	  76
  47	  85
  47	  87
  47	  92
  47	  97
  47	  98
  47	 102
  47	 103
  47	 104
  47	 107
  48	  50
  48	  52
  48	  53
  48	  54
  48	  56
  48	  58
  48	  62
  48	  72
  48	  74
  48	  76
  48	  79
  48	  81
  48	  82
  48	  84
  48	  85
  48	  89
  48	  91
  48	  92
  48	  94
  48	 106
  48	 110
  48	 113
  49	  51
  49	  53
  49	  57
  49	  58
  49	  59
  49	  60
  49	  61
  49	  62
  49	  66
  49	  70
  49	  71
  49	  77
  49	  78
  49	  97
  49	  98
  49	 103
  49	 106
  49	 110
  49	 112
  49	 119
  50	  53
  50	  57
  50	  58
  50	  60
  50	  67
  50	  74
  50	  75
  50	  78
  50	  81
  50	  84
  50	  88
  50	  89
  50	  93
  50	 108
  50	 109
  50	 112
  50	 113
  50	 115
  51	  59
  51	  62
  51	  65
  51	  66
  51	  74
  51	  75
  51	  78
  51	  83
  51	  84
  51	  86
  51	  88
  51	  90
  51	 100
  51	 108
  51	 111
  51	 119
  52	  53
  52	  55
  52	  56
  52	  59
  52	  66
  52	  72
  52	  75
  52	  81
  52	  83
  52	  84
  52	  88
  52	  89
  52	  90
  52	  97
  52	 105
  52	 112
  52	 117
  52	 119
  53	  56
  53	  58
  53	  64
  53	  67
  53	  68
  53	  70
  53	  73
  53	  80
  53	  82
  53	  92
  53	  93
  53	  98
  53	  99
  53	 101
  53	 104
  53	 106
  53	 109
  53	 114
  53	 116
  54	  56
  54	  58
  54	  60
  54	  63
  54	  68
  54	  75
  54	  79
  54	  84
  54	  88
  54	  94
  54	  95
  54	 102
  54	 105
  54	 106
  54	 110
  54	 113
  55	  60
  55	  61
  55	  65
  55	  67
  55	  69
  55	  72
  55	  76
  55	  79
  55	  80
  55	  84
  55	  85
  55	  89
  55	  90
  55	 109
  55	 113
  55	 114
  56	  57
  56	  58
  56	  63
  56	  64
  56	  65
  56	  67
  56	  70
  56	  71
  56	  73
  56	  74
  56	  75
  56	  78
  56	  81
  56	 106
  56	 107
  56	 108
  56	 112
  56	 113
  56	 116
  56	 118
  57	  59
  57	  61
  57	  67
  57	  70
  57	  71
  57	  72
  57	  73
  57	  76
  57	  78
  57	  82
  57	  86
  57	  87
  57	  88
  57	  89
  57	  91
  57	  95
  57	  99
  57	 101
  57	 103
  57	 104
  57	 106
  57	 109
  57	 115
  58	  63
  58	  66
  58	  68
  58	  76
  58	  77
  58	  79
  58	  87
  58	  91
  58	  94
  58	  95
  58	  98
  58	  99
  58	 100
  58	 101
  58	 105
  58	 106
  58	 109
  58	 111
  58	 112
  58	 117
  59	  61
  59	  62
  59	  67
  59	  69
  59	  70
  59	  75
  59	  76
  59	  79
  59	  80
  59	  82
  59	  85
  59	  88
  59	  93
  59	  94
  59	  95
  59	  98
  59	  99
  59	 101
  59	 108
  59	 109
  59	 112
  59	 119
  60	  61
  60	  67
  60	  71
  60	  76
  60	  82
  60	  89
  60	 100
  60	 105
  60	 106
  60	 109
  60	 113
  60	 115
  61	  62
  61	  63
  61	  65
  61	  72
  61	  74
  61	  78
  61	  81
  61	  89
  61	  90
  61	  96
  61	  98
  61	 104
  61	 105
  61	 108
  61	 111
  61	 112
  61	 118
  62	  67
  62	  72
  62	  76
  62	  80
  62	  81
  62	  92
  62	 104
  62	 107
  62	 108
  62	 111
  62	 114
  62	 116
  62	 119
  63	  65
  63	  67
  63	  70
  63	  74
  63	  75
  63	  76
  63	  78
  63	  80
  63	  81
  63	  82
  63	  83
  63	  85
  63	  92
  63	 101
  63	 102
  63	 103
  63	 106
  63	 108
  63	 116
  64	  66
  64	  71
  64	  78
  64	  81
  64	  82
  64	  83
  64	  85
  64	  89
  64	  94
  64	  95
  64	  98
  64	 115
  64	 118
  65	  68
  65	  70
  65	  71
  65	  74
  65	  82
  65	  87
  65	  92
  65	  96
  65	  98
  65	 101
  65	 107
  65	 108
  65	 116
  65	 117
  65	 118
  66	  75
  66	  87
  66	  90
  66	  93
  66	  95
  66	  96
  66	 102
  66	 104
  66	 107
  66	 110
  66	 111
  66	 118
  67	  77
  67	  80
  67	  84
  67	  85
  67	  86
  67	  91
  67	  92
  67	 101
  67	 105
  67	 107
  67	 113
  67	 116
  67	 119
  68	  70
  68	  71
  68	  73
  68	  75
  68	  80
  68	  82
  68	  85
  68	  94
  68	  97
  68	 102
  68	 107
  68	 112
  69	  72
  69	  73
  69	  74
  69	  75
  69	  76
  69	  79
  69	  82
  69	  90
  69	  92
  69	  93
  69	  96
  69	 101
  69	 105
  69	 106
  69	 107
  69	 110
  69	 115
  69	 118
  70	  72
  70	  75
  70	  77
  70	  80
  70	  81
  70	  84
  70	  87
  70	  88
  70	  89
  70	  90
  70	  92
  70	  98
  70	  99
  70	 101
  70	 102
  70	 104
  70	 105
  70	 108
  70	 110
  70	 111
  70	 112
  70	 113
  70	 119
  71	  72
  71	  78
  71	  80
  71	  84
  71	  85
  71	  86
  71	  88
  71	  89
  71	  91
  71	  94
  71	  95
  71	  97
  71	 102
  71	 103
  71	 106
  71	 112
  71	 113
  71	 116
  71	 119
  72	  73
  72	  77
  72	  78
  72	  82
  72	  85
  72	  88
  72	  90
  72	  92
  72	  93
  72	  95
  72	  96
  72	  97
  72	 111
  72	 113
  72	 115
  72	 116
  73	  75
  73	  78
  73	  84
  73	  86
  73	  87
  73	  92
  73	  94
  73	  98
  73	  99
  73	 105
  73	 106
  73	 109
  73	 112
  73	 113
  73	 117
  73	 119
  74	  82
  74	  92
  74	 104
  74	 105
  74	 110
  74	 113
  74	 118
  75	  77
  75	  88
  75	  93
  75	  98
  75	 100
  75	 101
  75	 103
  75	 111
  75	 112
  75	 114
  75	 115
  75	 116
  75	 119
  76	  78
  76	  81
  76	  82
  76	  85
  76	  86
  76	  87
  76	  94
  76	  95
  76	  97
  76	  98
  76	 103
  76	 114
  76	 117
  77	  78
  77	  83
  77	  90
  77	  94
  77	  96
  77	 100
  77	 105
  77	 107
  77	 109
  77	 111
  77	 115
  77	 116
  77	 117
  77	 118
  77	 119
  78	  80
  78	  82
  78	  85
  78	  86
  78	  87
  78	  91
  78	  96
  78	  98
  78	  99
  78	 102
  78	 104
  78	 105
  79	  80
  79	  84
  79	  88
  79	  92
  79	  98
  79	 100
  79	 104
  79	 108
  79	 109
  79	 115
  80	  82
  80	  83
  80	  84
  80	  86
  80	  89
  80	  98
  80	 112
  80	 117
  81	  88
  81	  89
  81	  91
  81	  92
  81	  93
  81	  95
  81	 100
  81	 102
  81	 107
  81	 111
  82	  94
  82	  99
  82	 101
  82	 105
  82	 109
  82	 113
  82	 117
  82	 119
  83	  85
  83	  87
  83	  92
  83	  93
  83	  94
  83	  98
  83	 102
  83	 106
  83	 109
  83	 110
  83	 113
  83	 114
  83	 116
  83	 118
  84	  85
  84	  86
  84	  88
  84	  93
  84	  95
  84	  97
  84	  98
  84	  99
  84	 102
  84	 103
  84	 108
  84	 119
  85	  89
  85	  93
  85	  99
  85	 106
  85	 111
  85	 112
  85	 114
  85	 118
  86	  91
  86	  92
  86	  97
  86	 101
  86	 102
  86	 104
  86	 106
  86	 108
  86	 111
  86	 115
  87	  89
  87	  90
  87	  93
  87	  95
  87	  99
  87	 106
  87	 107
  87	 109
  87	 116
  88	  93
  88	  99
  88	 101
  88	 109
  88	 110
  88	 112
  88	 113
  88	 114
  88	 115
  88	 117
  88	 119
  89	  91
  89	  92
  89	  95
  89	  97
  89	  99
  89	 104
  89	 108
  89	 111
  89	 112
  89	 115
  89	 116
  89	 119
  90	  94
  90	  95
  90	 103
  90	 105
  90	 106
  90	 110
  90	 111
  90	 113
  90	 114
  91	  92
  91	  93
  91	  94
  91	  95
  91	 101
  91	 103
  91	 104
  91	 109
  91	 113
  91	 119
  92	  99
  92	 103
  92	 105
  92	 107
  92	 109
  92	 113
  92	 115
  93	  94
  93	  96
  93	  97
  93	 103
  93	 105
  93	 106
  93	 117
  94	  98
  94	 104
  94	 109
  94	 110
  94	 112
  94	 113
  94	 114
  94	 118
  95	 101
  95	 105
  95	 106
  95	 116
  95	 117
  95	 118
  95	 119
  96	 102
  96	 103
  96	 104
  96	 115
  96	 118
  96	 119
  97	 101
  97	 102
  97	 103
  97	 107
  97	 108
  97	 112
  97	 114
  98	 101
  98	 102
  98	 105
  98	 108
  98	 110
  98	 112
  98	 115
  98	 116
  99	 102
  99	 104
  99	 107
  99	 108
  99	 115
  99	 118
 100	 102
 100	 107
 100	 112
 100	 115
 100	 116
 100	 117
 101	 110
 101	 112
 101	 113
 101	 117
 102	 103
 102	 110
 103	 109
 103	 113
 103	 114
 103	 115
 103	 118
 104	 106
 104	 107
 104	 109
 104	 110
 104	 113
 104	 118
 104	 119
 105	 108
 105	 109
 105	 112
 105	 115
 105	 116
 107	 112
 107	 116
 107	 117
 108	 109
 108	 113
 108	 115
 108	 116
 109	 113
 109	 114
 109	 116
 109	 118
 109	 119
 110	 112
 110	 114
 110	 117
 111	 112
 111	 113
 111	 119
 112	 115
 112	 117
 112	 118
 112	 119
 113	 116
 113	 118
 114	 116
 114	 117
 114	 119
 115	 117
 116	 117
 117	 118
 118	 119
;
